120 5
10 10 10 10 10 

0 0 0 0 0 0 1 2 
0 0 0 0 0 0 4 3 4 5 8 
3 0 1 0 0 0 4 12 11 10 6 
4 0 3 0 0 0 3 12 7 6 
2 0 3 0 0 0 2 11 9 
5 0 3 0 0 0 1 9 
8 0 3 0 0 0 1 9 
4 0 1 0 0 0 1 10 
10 0 3 0 0 0 1 13 
9 0 3 0 0 0 1 13 
6 0 3 0 0 0 1 13 
8 0 2 0 0 0 1 13 
0 0 0 0 0 0 2 14 26 
0 0 0 0 0 0 4 15 16 17 18 
7 0 0 0 1 0 4 24 23 20 19 
4 0 0 0 2 0 3 22 20 19 
4 0 0 0 2 0 2 23 20 
10 0 0 0 2 0 2 22 20 
9 0 0 0 2 0 1 21 
3 0 0 0 1 0 1 25 
10 0 0 0 3 0 1 25 
4 0 0 0 6 0 2 25 101 
5 0 0 0 3 0 1 25 
9 0 0 0 3 0 1 25 
0 0 0 0 0 0 3 48 60 72 
0 0 0 0 0 0 5 27 28 29 30 32 
2 0 0 0 1 1 3 39 33 31 
3 0 0 0 4 2 2 39 31 
7 0 0 0 2 1 5 46 39 36 35 34 
1 0 0 0 4 4 3 36 35 33 
9 0 0 0 5 1 4 46 36 35 34 
4 0 0 0 3 2 5 46 40 39 37 36 
1 0 0 0 3 4 3 46 41 34 
1 0 0 0 2 3 4 44 40 38 37 
6 0 0 0 2 2 4 44 40 38 37 
1 0 0 0 2 4 3 44 43 41 
10 0 0 0 1 3 2 45 42 
7 0 0 0 5 1 2 43 42 
4 0 0 0 2 1 2 43 42 
3 0 0 0 1 2 1 43 
3 0 0 0 2 5 1 42 
7 0 0 0 3 1 1 47 
7 0 0 0 1 2 1 47 
5 0 0 0 2 3 1 47 
4 0 0 0 2 2 1 47 
8 0 0 0 3 6 1 47 
0 0 0 0 0 0 1 84 
0 0 0 0 0 0 4 49 50 51 54 
2 0 1 0 0 0 3 58 53 52 
2 0 4 0 0 0 3 58 57 52 
4 0 2 0 0 0 2 53 52 
9 0 3 0 0 0 2 56 55 
6 0 2 0 0 0 2 57 56 
10 0 4 0 0 0 2 58 55 
4 0 2 0 0 0 1 59 
2 0 2 0 0 0 1 59 
7 0 2 0 0 0 1 59 
3 0 3 0 0 0 1 59 
0 0 0 0 0 0 1 84 
0 0 0 0 0 0 3 61 62 70 
2 0 0 1 0 0 4 69 68 64 63 
3 0 0 3 0 0 3 68 65 63 
7 0 0 2 0 0 2 67 66 
4 0 0 2 0 0 1 65 
2 0 0 5 0 0 1 71 
1 0 0 2 0 0 1 71 
5 0 0 4 0 0 1 71 
7 0 0 2 0 0 1 71 
10 0 0 1 0 0 1 71 
10 0 0 3 0 0 1 71 
0 0 0 0 0 0 1 84 
0 0 0 0 0 0 5 73 75 80 81 82 
10 0 0 0 0 1 3 79 77 74 
5 0 0 0 0 2 2 78 76 
7 0 0 0 0 2 2 77 76 
3 0 0 0 0 4 1 83 
6 0 0 0 0 3 1 83 
8 0 0 0 0 2 1 83 
10 0 0 0 0 1 1 83 
6 0 0 0 0 3 1 83 
8 0 0 0 0 3 1 83 
8 0 0 0 0 4 1 83 
0 0 0 0 0 0 1 84 
0 0 0 0 0 0 2 85 97 
0 0 0 0 0 0 4 86 87 88 91 
10 0 1 0 0 0 3 93 90 89 
9 0 3 0 0 0 3 93 92 90 
4 0 5 0 0 0 3 94 93 92 
4 0 2 0 0 0 2 94 92 
7 0 3 0 0 0 1 95 
4 0 2 0 0 0 1 92 
6 0 2 0 0 0 1 96 
2 0 2 0 0 0 1 96 
5 0 2 0 0 0 1 96 
3 0 3 0 0 0 1 96 
0 0 0 0 0 0 1 109 
0 0 0 0 0 0 5 98 99 100 106 107 
2 0 1 0 0 0 4 105 103 102 101 
6 0 1 0 0 0 4 105 103 102 101 
4 0 5 0 0 0 1 101 
2 0 3 0 0 0 1 104 
8 0 2 0 0 0 1 104 
4 0 2 0 0 0 1 104 
9 0 6 0 0 0 1 108 
10 0 1 0 0 0 1 108 
5 0 3 0 0 0 1 108 
1 0 1 0 0 0 1 108 
0 0 0 0 0 0 1 109 
0 0 0 0 0 0 3 110 112 114 
3 0 1 0 0 0 4 119 117 113 111 
10 0 1 0 0 0 2 118 115 
3 0 2 0 0 0 2 117 116 
3 0 4 0 0 0 1 116 
4 0 3 0 0 0 1 115 
8 0 2 0 0 0 1 120 
10 0 2 0 0 0 1 120 
6 0 3 0 0 0 1 120 
8 0 4 0 0 0 1 120 
2 0 3 0 0 0 1 120 
0 0 0 0 0 0 0 
